2	25
992	575	475	312	741	618	210	95	366	622	130	896	998	737	250	605	426	482	265	592	230	287	771	723	497	
529	888	720	306	556	348	332	846	703	593	374	705	982	99	300	796	362	274	265	918	419	141	405	76	16	
1495	1495	
